p cnf 91 377
20 -38 -54 -70 71 -72 0
1 10 42 -60 83 0
1 -42 45 60 -87 0
3 23 32 56 59 0
-3 -16 -23 67 -89 0
-3 -16 -50 -68 -89 0
-3 -23 50 67 -89 0
-4 -19 52 -61 84 0
7 8 9 -47 55 0
7 8 -47 55 64 0
7 9 -43 -48 55 0
7 40 -43 45 -87 0
11 12 26 -27 34 0
12 -31 57 58 -73 0
13 -31 57 58 -73 0
13 49 67 -68 91 0
19 23 39 42 60 0
19 23 -65 74 -75 0
19 -50 51 68 -91 0
19 -50 -51 68 -91 0
20 21 22 -72 -77 0
20 -38 41 -54 71 0
13 -31 -73 78 79 0
-16 -50 -51 -68 -89 0
-16 -51 67 68 -89 0
20 21 22 -72 88 0
2 24 -35 -61 0
-2 -5 -6 61 0
-2 25 -65 74 0
-3 -16 -23 67 0
-3 -19 67 91 0
-4 -63 78 82 0
-5 -6 37 62 0
7 8 9 -47 0
7 42 46 -87 0
-7 -8 -42 -83 0
-7 -8 -45 -83 0
8 -45 48 55 0
10 11 -27 34 0
10 -21 -69 -72 0
10 69 -72 -77 0
12 14 -78 -79 0
13 49 67 -68 0
-13 -49 -85 90 0
-13 66 89 90 0
-14 -15 57 58 0
17 44 -72 77 0
-17 -18 -39 -77 0
-17 22 -41 -72 0
19 23 -30 -36 0
-22 -53 70 -88 0
23 39 40 64 0
24 -32 -35 -59 0
-24 26 28 -33 0
25 30 57 80 0
-26 27 -28 57 0
-29 -30 -36 37 0
-32 -35 -56 -61 0
-32 56 -61 -62 0
-40 43 -44 87 0
2 3 24 56 0
3 25 27 32 0
-3 -50 -68 91 0
7 -48 55 64 0
-7 -8 -46 -83 0
-8 42 70 -87 0
13 58 -73 79 0
-15 29 57 58 0
19 23 -65 -75 0
19 23 -76 -80 0
20 53 -70 71 0
25 -65 74 -75 0
-37 52 78 84 0
42 45 55 -60 0
46 60 83 -87 0
51 68 -85 -91 0
53 -54 70 71 0
-63 -78 -79 84 0
1 10 83 0
-1 -10 -12 0
-1 33 59 0
-1 -83 -88 0
2 5 -62 0
-2 -5 -65 0
-2 -6 61 0
-2 -35 -59 0
3 4 -32 0
3 4 89 0
3 -49 -68 0
4 -16 68 0
-4 61 62 0
5 -35 -52 0
5 -74 -82 0
5 -78 -84 0
-5 -74 82 0
6 -36 -37 0
7 40 64 0
-8 -9 -45 0
-8 22 88 0
-8 -39 -48 0
-8 -46 64 0
-8 -64 -70 0
9 40 -43 0
9 46 -47 0
10 11 -34 0
-10 26 -34 0
-11 12 80 0
-11 -14 76 0
12 -19 -28 0
13 -16 -86 0
13 67 85 0
-14 -31 79 0
15 -19 31 0
15 -29 36 0
15 -58 -80 0
-15 -30 -31 0
17 19 39 0
-17 -19 -44 0
-18 -19 -64 0
-18 -41 -47 0
-18 -54 81 0
19 47 48 0
19 76 -80 0
-19 25 -74 0
-19 25 80 0
-19 -31 -76 0
-19 -34 -57 0
-19 -51 67 0
-19 53 -72 0
-19 86 -90 0
20 53 -69 0
-20 -71 77 0
21 38 39 0
22 71 -77 0
-22 53 -70 0
23 27 34 0
23 -33 34 0
23 -33 -80 0
23 74 -76 0
23 -74 -75 0
-23 -24 -25 0
-23 25 65 0
-23 -25 -34 0
-23 51 -86 0
-23 -51 -81 0
24 -32 -59 0
24 35 59 0
25 33 56 0
25 75 76 0
25 -75 76 0
-25 -33 -80 0
-25 -65 -80 0
26 31 -73 0
26 57 78 0
28 57 59 0
-31 -79 -80 0
-32 -33 -34 0
33 34 80 0
-35 37 82 0
36 -37 -63 0
36 62 63 0
38 54 72 0
-38 47 64 0
-40 -43 87 0
43 -45 46 0
-46 47 64 0
47 -64 -81 0
50 66 86 0
50 -66 89 0
-51 -68 -91 0
58 76 80 0
-61 65 -82 0
-61 -78 82 0
-63 65 -84 0
66 -86 -90 0
-66 -67 -89 0
-66 86 90 0
67 68 91 0
68 89 90 0
69 70 88 0
70 -71 77 0
-70 -72 88 0
3 24 35 59 0
26 -27 -28 57 0
-29 -30 57 -73 0
1 27 0
1 -32 0
1 -52 0
1 59 0
1 -62 0
1 63 0
1 88 0
-1 -2 0
-1 35 0
-1 39 0
-1 62 0
-1 83 0
2 6 0
2 56 0
2 -74 0
-2 25 0
-2 -59 0
3 49 0
3 -50 0
3 -56 0
3 -62 0
3 -67 0
3 -84 0
3 87 0
-3 32 0
-3 -67 0
-3 91 0
4 16 0
4 19 0
4 23 0
4 33 0
4 40 0
4 61 0
4 63 0
4 -82 0
4 86 0
4 91 0
4 -91 0
-4 70 0
-4 79 0
-4 -84 0
-4 -89 0
5 10 0
5 78 0
-5 52 0
-5 -63 0
-5 84 0
6 35 0
6 -62 0
6 -82 0
-6 -30 0
-6 36 0
-6 74 0
7 45 0
7 46 0
7 60 0
-7 -46 0
-7 -60 0
-7 87 0
8 9 0
8 -10 0
8 -45 0
8 -50 0
8 64 0
8 -70 0
8 83 0
8 -88 0
-8 -10 0
-8 -12 0
-8 45 0
-8 54 0
-8 60 0
-8 64 0
-8 83 0
-8 87 0
-8 -88 0
9 40 0
9 -48 0
9 55 0
-9 -40 0
-9 43 0
-9 -46 0
10 18 0
10 20 0
10 -27 0
10 34 0
10 44 0
10 -56 0
10 -70 0
10 -77 0
-10 -11 0
-10 24 0
-10 -67 0
-10 -83 0
11 12 0
11 -12 0
11 14 0
11 -31 0
11 57 0
11 76 0
-11 -15 0
-11 29 0
-11 -57 0
12 28 0
12 34 0
12 -59 0
-12 31 0
-12 73 0
-12 -78 0
-12 -79 0
13 -16 0
13 -47 0
13 -78 0
13 -79 0
13 85 0
13 91 0
-13 -50 0
-13 -67 0
-13 68 0
-13 -70 0
14 31 0
14 -57 0
14 -58 0
14 73 0
-14 73 0
-14 -73 0
-14 -79 0
15 30 0
15 -57 0
15 -80 0
-15 26 0
16 49 0
16 50 0
16 51 0
16 -68 0
-16 -49 0
17 40 0
17 -44 0
-17 -40 0
-17 44 0
-17 -48 0
-17 77 0
18 21 0
18 42 0
18 54 0
-18 -38 0
-18 -40 0
-18 -55 0
-18 -69 0
-18 71 0
-18 -86 0
19 -36 0
19 41 0
19 56 0
19 -68 0
19 69 0
19 -74 0
19 85 0
-19 -24 0
-19 -26 0
-19 -43 0
-19 -48 0
-19 -53 0
-19 54 0
-19 -56 0
-19 -60 0
-19 74 0
-19 79 0
-19 -79 0
-19 83 0
-19 -84 0
-19 85 0
-19 -86 0
-19 89 0
-19 -89 0
20 42 0
20 88 0
-20 -21 0
-20 -22 0
-20 69 0
-20 -71 0
-20 77 0
21 23 0
21 39 0
21 -42 0
21 88 0
-21 38 0
-21 42 0
-21 -77 0
-21 -88 0
22 53 0
22 -53 0
